Route 1: 0 12 60 11 90 64 27 81 98 69 0
Route 2: 0 26 13 2 19 51 50 61 41 24 67 91 0
Route 3: 0 53 97 58 16 49 5 45 36 82 0
Route 4: 0 48 43 46 32 30 38 17 76 0
Route 5: 0 35 33 52 56 73 63 0
Route 6: 0 89 37 62 14 44 88 18 3 0
Route 7: 0 72 77 29 84 9 65 22 42 15 54 0
Route 8: 0 57 74 7 70 34 47 100 39 6 79 28 0
Route 9: 0 71 86 87 25 78 20 0
Route 10: 0 92 66 75 85 55 99 0
Route 11: 0 8 80 4 93 1 21 10 0
Route 12: 0 40 96 94 31 83 68 23 95 59 0
